
Log started (V20.1.0.0) Tue Aug  9 12:06:46 2022


Problem 'pp.lp' read.
Read time = 0.00 sec. (0.00 ticks)
Version identifier: 20.1.0.0 | 2020-11-10 | 9bedb6d68
Tried aggregator 1 time.
No LP presolve or aggregator reductions.
Presolve time = 0.00 sec. (0.00 ticks)

Iteration log . . .
Iteration:     1   Scaled dual infeas =             0.000000

Dual simplex - Optimal:  Objective =  1.0000000000e+02
Solution time =    0.00 sec.  Iterations = 1 (1)
Deterministic time = 0.00 ticks  (3.16 ticks/sec)


Variable Name           Solution Value
x2                           20.000000
All other variables matching '*' are 0.
